c uprop, v00.0, 
c reading from data/prog377.c.cnf
c done reading: 0.002494
p cnf 180 841
-87 -105 0
87 105 0
-82 105 0
82 -105 0
87 -99 0
-97 -99 0
-87 97 99 0
-87 -92 97 0
87 -92 -97 0
87 92 97 0
-87 92 -97 0
-88 99 0
-85 -88 0
85 88 -99 0
-84 85 -99 0
-84 -85 99 0
84 85 99 0
84 -85 -99 0
-83 88 0
-80 -83 0
80 83 -88 0
-78 80 -88 0
-78 -80 88 0
78 80 88 0
78 -80 -88 0
83 -103 0
-101 -103 0
-83 101 103 0
-83 101 -107 0
83 -101 -107 0
83 101 107 0
-83 -101 107 0
103 -108 0
-94 -108 0
94 -103 108 0
94 -103 -109 0
-94 103 -109 0
94 103 109 0
-94 -103 109 0
108 -110 0
-90 -110 0
90 -108 110 0
90 -108 -111 0
-90 108 -111 0
90 108 111 0
-90 -108 111 0
105 -112 0
-105 112 0
-97 -105 113 0
97 105 -113 0
97 -113 0
105 -113 0
97 -113 -114 0
105 -113 -114 0
-113 -114 0
-97 113 114 0
-105 113 114 0
97 105 -114 0
-85 -97 115 0
-85 -113 115 0
-97 -113 115 0
85 97 -115 0
85 113 -115 0
97 113 -115 0
85 -115 -116 0
97 -115 -116 0
113 -115 -116 0
-85 115 116 0
-97 115 116 0
-113 115 116 0
-85 -97 -113 116 0
85 97 113 -116 0
-80 -85 117 0
-80 -115 117 0
-85 -115 117 0
80 85 -117 0
80 115 -117 0
85 115 -117 0
80 -117 -118 0
85 -117 -118 0
115 -117 -118 0
-80 117 118 0
-85 117 118 0
-115 117 118 0
-80 -85 -115 118 0
80 85 115 -118 0
-80 -101 119 0
-101 -117 119 0
-80 -117 119 0
80 101 -119 0
101 117 -119 0
80 117 -119 0
-77 101 -119 0
-77 80 -119 0
-77 117 -119 0
77 -101 119 0
77 -80 119 0
77 -117 119 0
77 -80 -101 -117 0
-77 80 101 117 0
76 -94 -101 0
76 -94 -119 0
76 -101 -119 0
-76 94 101 0
-76 94 119 0
-76 101 119 0
-75 -76 94 0
-75 -76 101 0
-75 -76 119 0
75 76 -94 0
75 76 -101 0
75 76 -119 0
75 -94 -101 -119 0
-75 94 101 119 0
74 -90 -94 0
74 -76 -90 0
74 -76 -94 0
-74 90 94 0
-74 76 90 0
-74 76 94 0
-73 -74 90 0
-73 -74 94 0
-73 -74 76 0
73 74 -90 0
73 74 -94 0
73 74 -76 0
73 -76 -90 -94 0
-73 76 90 94 0
90 -104 0
74 -104 0
-74 -90 104 0
-74 -90 -96 0
74 90 -96 0
74 -90 96 0
-74 90 96 0
-79 116 0
79 -116 0
100 -105 -118 0
-100 105 118 0
-100 118 0
-100 105 0
-93 -100 118 0
-93 -100 105 0
-93 -100 0
93 100 -118 0
93 100 -105 0
-93 105 118 0
-77 89 -97 0
-77 89 -100 0
89 -97 -100 0
77 -89 97 0
77 -89 100 0
-89 97 100 0
-72 77 -89 0
-72 -89 97 0
-72 -89 100 0
72 -77 89 0
72 89 -97 0
72 89 -100 0
72 -77 -97 -100 0
-72 77 97 100 0
71 -75 -85 0
71 -75 -89 0
71 -85 -89 0
-71 75 85 0
-71 75 89 0
-71 85 89 0
-70 -71 75 0
-70 -71 85 0
-70 -71 89 0
70 71 -75 0
70 71 -85 0
70 71 -89 0
70 -75 -85 -89 0
-70 75 85 89 0
69 -73 -80 0
69 -71 -73 0
69 -71 -80 0
-69 73 80 0
-69 71 73 0
-69 71 80 0
-68 -69 73 0
-68 -69 80 0
-68 -69 71 0
68 69 -73 0
68 69 -80 0
68 69 -71 0
68 -71 -73 -80 0
-68 71 73 80 0
67 -96 -101 0
67 -69 -96 0
67 -69 -101 0
-67 96 101 0
-67 69 96 0
-67 69 101 0
-66 -67 96 0
-66 -67 101 0
-66 -67 69 0
66 67 -96 0
66 67 -101 0
66 67 -69 0
66 -69 -96 -101 0
-66 69 96 101 0
65 -94 -104 0
65 -67 -104 0
65 -67 -94 0
-65 94 104 0
-65 67 104 0
-65 67 94 0
-64 -65 104 0
-64 -65 94 0
-64 -65 67 0
64 65 -104 0
64 65 -94 0
64 65 -67 0
64 -67 -94 -104 0
-64 67 94 104 0
-63 90 0
-63 65 0
63 -65 -90 0
-62 -65 -90 0
-62 65 90 0
62 65 -90 0
62 -65 90 0
-61 72 0
61 -72 0
60 -70 -105 0
-60 70 105 0
-60 70 0
-60 105 0
-59 -60 70 0
-59 -60 105 0
-59 -60 0
59 60 -70 0
59 60 -105 0
-59 70 105 0
58 -68 -97 0
58 -60 -68 0
58 -60 -97 0
-58 68 97 0
-58 60 68 0
-58 60 97 0
-57 -58 68 0
-57 -58 97 0
-57 -58 60 0
57 58 -68 0
57 58 -97 0
57 58 -60 0
57 -60 -68 -97 0
-57 60 68 97 0
56 -66 -85 0
56 -58 -66 0
56 -58 -85 0
-56 66 85 0
-56 58 66 0
-56 58 85 0
-55 -56 66 0
-55 -56 85 0
-55 -56 58 0
55 56 -66 0
55 56 -85 0
55 56 -58 0
55 -58 -66 -85 0
-55 58 66 85 0
54 -64 -80 0
54 -56 -64 0
54 -56 -80 0
-54 64 80 0
-54 56 64 0
-54 56 80 0
-54 64 -120 0
-54 80 -120 0
-54 56 -120 0
54 -64 120 0
54 -80 120 0
54 -56 120 0
-56 -64 -80 120 0
56 64 80 -120 0
-62 -101 121 0
-54 -62 121 0
-54 -101 121 0
62 101 -121 0
54 62 -121 0
54 101 -121 0
62 -121 -122 0
101 -121 -122 0
54 -121 -122 0
-62 121 122 0
-101 121 122 0
-54 121 122 0
-54 -62 -101 122 0
54 62 101 -122 0
-63 -94 123 0
-63 -121 123 0
-94 -121 123 0
63 94 -123 0
63 121 -123 0
94 121 -123 0
63 -123 -124 0
94 -123 -124 0
121 -123 -124 0
-63 123 124 0
-94 123 124 0
-121 123 124 0
-63 -94 -121 124 0
63 94 121 -124 0
90 -125 0
123 -125 0
-90 -123 125 0
-90 -123 -126 0
90 123 -126 0
-90 123 126 0
90 -123 126 0
-112 -127 0
112 127 0
112 -128 0
-112 128 0
127 -129 0
-114 -129 0
114 -127 129 0
114 -127 -130 0
-114 127 -130 0
114 127 130 0
-114 -127 130 0
129 -131 0
-79 -131 0
79 -129 131 0
79 -129 -132 0
-79 129 -132 0
79 129 132 0
-79 -129 132 0
131 -133 0
-93 -133 0
93 -131 133 0
93 -131 -134 0
-93 131 -134 0
93 131 134 0
-93 -131 134 0
133 -135 0
-61 -135 0
61 -133 135 0
61 -133 -136 0
-61 133 -136 0
61 133 136 0
-61 -133 136 0
135 -137 0
-59 -137 0
59 -135 137 0
59 -135 -138 0
-59 135 -138 0
59 135 138 0
-59 -135 138 0
137 -139 0
-57 -139 0
57 -137 139 0
57 -137 -140 0
-57 137 -140 0
57 137 140 0
-57 -137 140 0
139 -141 0
-55 -141 0
55 -139 141 0
55 -139 -142 0
-55 139 -142 0
55 139 142 0
-55 -139 142 0
141 -143 0
-120 -143 0
120 -141 143 0
120 -141 -144 0
-120 141 -144 0
120 141 144 0
-120 -141 144 0
143 -145 0
-122 -145 0
122 -143 145 0
122 -143 -146 0
-122 143 -146 0
122 143 146 0
-122 -143 146 0
145 -147 0
-124 -147 0
124 -145 147 0
124 -145 -148 0
-124 145 -148 0
124 145 148 0
-124 -145 148 0
147 -149 0
-126 -149 0
126 -147 149 0
126 -147 -150 0
-126 147 -150 0
126 147 150 0
-126 -147 150 0
149 -151 0
-125 -151 0
125 -149 151 0
125 -149 -152 0
-125 149 -152 0
125 149 152 0
-125 -149 152 0
-153 -155 0
-155 -156 0
153 155 156 0
153 156 -158 0
-153 -156 -158 0
-153 156 158 0
153 -156 158 0
155 -159 0
-159 -160 0
-155 159 160 0
-155 160 -162 0
155 -160 -162 0
155 160 162 0
-155 -160 162 0
159 -163 0
-163 -164 0
-159 163 164 0
-159 164 -166 0
159 -164 -166 0
159 164 166 0
-159 -164 166 0
163 -167 0
-167 -168 0
-163 167 168 0
-163 168 -170 0
163 -168 -170 0
163 168 170 0
-163 -168 170 0
-106 167 0
-106 -171 0
106 -167 171 0
-98 -167 171 0
-98 167 -171 0
98 167 171 0
98 -167 -171 0
-86 106 0
-86 -173 0
86 -106 173 0
-81 -106 173 0
-81 106 -173 0
81 106 173 0
81 -106 -173 0
86 -102 0
-102 -175 0
-86 102 175 0
-86 -95 175 0
86 -95 -175 0
86 95 175 0
-86 95 -175 0
-91 156 0
-91 153 0
91 -153 -156 0
-153 -154 -156 0
153 -154 156 0
153 154 -156 0
-153 154 156 0
-156 157 -160 0
-91 157 -160 0
-91 -156 157 0
156 -157 160 0
91 -157 160 0
91 156 -157 0
-157 160 -161 0
156 -157 -161 0
91 -157 -161 0
157 -160 161 0
-156 157 161 0
-91 157 161 0
-91 -156 -160 161 0
91 156 160 -161 0
-160 -164 165 0
-157 -164 165 0
-157 -160 165 0
160 164 -165 0
157 164 -165 0
157 160 -165 0
164 -165 -169 0
160 -165 -169 0
157 -165 -169 0
-164 165 169 0
-160 165 169 0
-157 165 169 0
-157 -160 -164 169 0
157 160 164 -169 0
-164 -168 172 0
-165 -168 172 0
-164 -165 172 0
164 168 -172 0
165 168 -172 0
164 165 -172 0
168 -172 -174 0
164 -172 -174 0
165 -172 -174 0
-168 172 174 0
-164 172 174 0
-165 172 174 0
-164 -165 -168 174 0
164 165 168 -174 0
-168 -171 176 0
-171 -172 176 0
-168 -172 176 0
168 171 -176 0
171 172 -176 0
168 172 -176 0
171 -176 -177 0
168 -176 -177 0
172 -176 -177 0
-171 176 177 0
-168 176 177 0
-172 176 177 0
-168 -171 -172 177 0
168 171 172 -177 0
-171 -173 178 0
-173 -176 178 0
-171 -176 178 0
171 173 -178 0
173 176 -178 0
171 176 -178 0
173 -178 -179 0
171 -178 -179 0
176 -178 -179 0
-173 178 179 0
-171 178 179 0
-176 178 179 0
-171 -173 -176 179 0
171 173 176 -179 0
-173 -175 180 0
-175 -178 180 0
-173 -178 180 0
173 175 -180 0
175 178 -180 0
173 178 -180 0
-53 175 -180 0
-53 173 -180 0
-53 178 -180 0
53 -175 180 0
53 -173 180 0
53 -178 180 0
53 -173 -175 -178 0
-53 173 175 178 0
-52 175 0
-52 180 0
52 -175 -180 0
-51 -175 -180 0
-51 175 180 0
51 -175 180 0
51 175 -180 0
-50 169 0
-50 153 0
50 -153 -169 0
-49 -153 -169 0
-49 153 169 0
49 153 -169 0
49 -153 169 0
48 -156 -174 0
48 -50 -174 0
48 -50 -156 0
-48 156 174 0
-48 50 174 0
-48 50 156 0
-47 -48 174 0
-47 -48 156 0
-47 -48 50 0
47 48 -174 0
47 48 -156 0
47 48 -50 0
47 -50 -156 -174 0
-47 50 156 174 0
46 -160 -177 0
46 -48 -177 0
46 -48 -160 0
-46 160 177 0
-46 48 177 0
-46 48 160 0
-45 -46 177 0
-45 -46 160 0
-45 -46 48 0
45 46 -177 0
45 46 -160 0
45 46 -48 0
45 -48 -160 -177 0
-45 48 160 177 0
44 -164 -179 0
44 -46 -179 0
44 -46 -164 0
-44 164 179 0
-44 46 179 0
-44 46 164 0
-43 -44 179 0
-43 -44 164 0
-43 -44 46 0
43 44 -179 0
43 44 -164 0
43 44 -46 0
43 -46 -164 -179 0
-43 46 164 179 0
42 -53 -168 0
42 -44 -53 0
42 -44 -168 0
-42 53 168 0
-42 44 53 0
-42 44 168 0
-41 -42 53 0
-41 -42 168 0
-41 -42 44 0
41 42 -53 0
41 42 -168 0
41 42 -44 0
41 -44 -53 -168 0
-41 44 53 168 0
40 -51 -171 0
40 -42 -51 0
40 -42 -171 0
-40 51 171 0
-40 42 51 0
-40 42 171 0
-39 -40 51 0
-39 -40 171 0
-39 -40 42 0
39 40 -51 0
39 40 -171 0
39 40 -42 0
39 -42 -51 -171 0
-39 42 51 171 0
38 -52 -173 0
38 -40 -52 0
38 -40 -173 0
-38 52 173 0
-38 40 52 0
-38 40 173 0
-37 -38 52 0
-37 -38 173 0
-37 -38 40 0
37 38 -52 0
37 38 -173 0
37 38 -40 0
37 -40 -52 -173 0
-37 40 52 173 0
-36 175 0
-36 38 0
36 -38 -175 0
-35 -38 -175 0
-35 38 175 0
35 38 -175 0
35 -38 175 0
-34 -153 0
-34 -154 0
34 153 154 0
-33 153 154 0
-33 -153 -154 0
33 -153 154 0
33 153 -154 0
-32 34 0
-32 -161 0
32 -34 161 0
-31 -34 161 0
-31 34 -161 0
31 34 161 0
31 -34 -161 0
-30 32 0
-30 -49 0
30 -32 49 0
-29 -32 49 0
-29 32 -49 0
29 32 49 0
29 -32 -49 0
-28 30 0
-28 -47 0
28 -30 47 0
-27 -30 47 0
-27 30 -47 0
27 30 47 0
27 -30 -47 0
-26 28 0
-26 -45 0
26 -28 45 0
-25 -28 45 0
-25 28 -45 0
25 28 45 0
25 -28 -45 0
-24 26 0
-24 -43 0
24 -26 43 0
-23 -26 43 0
-23 26 -43 0
23 26 43 0
23 -26 -43 0
-22 24 0
-22 -41 0
22 -24 41 0
-21 -24 41 0
-21 24 -41 0
21 24 41 0
21 -24 -41 0
-20 22 0
-20 -39 0
20 -22 39 0
-19 -22 39 0
-19 22 -39 0
19 22 39 0
19 -22 -39 0
-18 20 0
-18 -37 0
18 -20 37 0
-17 -20 37 0
-17 20 -37 0
17 20 37 0
17 -20 -37 0
-16 18 0
-16 -35 0
16 -18 35 0
-15 -18 35 0
-15 18 -35 0
15 18 35 0
15 -18 -35 0
-14 16 0
-14 -36 0
14 -16 36 0
-13 -16 36 0
-13 16 -36 0
13 16 36 0
13 -16 -36 0
-12 112 0
-12 153 0
12 -112 -153 0
-112 -153 0
112 153 0
11 -114 -154 0
11 -12 -114 0
11 -12 -154 0
-11 114 154 0
-11 12 114 0
-11 12 154 0
-11 114 0
-11 154 0
-11 12 0
12 114 154 0
10 -79 -161 0
10 -11 -79 0
10 -11 -161 0
-10 79 161 0
-10 11 79 0
-10 11 161 0
-10 79 0
-10 161 0
-10 11 0
11 79 161 0
9 -49 -93 0
9 -10 -93 0
9 -10 -49 0
-9 49 93 0
-9 10 93 0
-9 10 49 0
-9 93 0
-9 49 0
-9 10 0
10 49 93 0
8 -47 -61 0
8 -9 -61 0
8 -9 -47 0
-8 47 61 0
-8 9 61 0
-8 9 47 0
8 -61 0
8 -47 0
8 -9 0
-9 -47 -61 0
7 -45 -59 0
7 -8 -59 0
7 -8 -45 0
-7 45 59 0
-7 8 59 0
-7 8 45 0
-7 59 0
-7 45 0
-7 8 0
8 45 59 0
6 -43 -57 0
6 -7 -57 0
6 -7 -43 0
-6 43 57 0
-6 7 57 0
-6 7 43 0
-6 57 0
-6 43 0
-6 7 0
7 43 57 0
5 -41 -55 0
5 -6 -55 0
5 -6 -41 0
-5 41 55 0
-5 6 55 0
-5 6 41 0
5 -55 0
5 -41 0
5 -6 0
-6 -41 -55 0
4 -39 -120 0
4 -5 -120 0
4 -5 -39 0
-4 39 120 0
-4 5 120 0
-4 5 39 0
4 -120 0
4 -39 0
4 -5 0
-5 -39 -120 0
3 -37 -122 0
3 -4 -122 0
3 -4 -37 0
-3 37 122 0
-3 4 122 0
-3 4 37 0
3 -122 0
3 -37 0
3 -4 0
-4 -37 -122 0
2 -35 -124 0
2 -3 -124 0
2 -3 -35 0
-2 35 124 0
-2 3 124 0
-2 3 35 0
2 -124 0
2 -35 0
2 -3 0
-3 -35 -124 0
1 -36 -126 0
1 -2 -126 0
1 -2 -36 0
-1 36 126 0
-1 2 126 0
-1 2 36 0
1 -126 0
1 -36 0
1 -2 0
-2 -36 -126 0
-1 -125 0
1 -125 0
-1 125 0
